; benchmark generated from python API
(set-info :status unknown)
(declare-fun v52 () Bool)
(declare-fun v38 () Bool)
(declare-fun v28_prime () Bool)
(declare-fun v12 () Bool)
(declare-fun v14 () Bool)
(declare-fun v20_prime () Bool)
(declare-fun v20 () Bool)
(declare-fun v48 () Bool)
(declare-fun i6 () Bool)
(declare-fun v30 () Bool)
(declare-fun v42 () Bool)
(declare-fun v32 () Bool)
(declare-fun v24_prime () Bool)
(declare-fun v48_prime () Bool)
(declare-fun v44_prime () Bool)
(declare-fun i10 () Bool)
(declare-fun i4 () Bool)
(declare-fun v50_prime () Bool)
(declare-fun i2 () Bool)
(declare-fun v12_prime () Bool)
(declare-fun v54_prime () Bool)
(declare-fun v44 () Bool)
(declare-fun v16_prime () Bool)
(declare-fun v26_prime () Bool)
(declare-fun v54 () Bool)
(declare-fun v22_prime () Bool)
(declare-fun v16 () Bool)
(declare-fun v34 () Bool)
(declare-fun v32_prime () Bool)
(declare-fun v24 () Bool)
(declare-fun v26 () Bool)
(declare-fun v30_prime () Bool)
(declare-fun v42_prime () Bool)
(declare-fun v18 () Bool)
(declare-fun v18_prime () Bool)
(declare-fun v46 () Bool)
(declare-fun v14_prime () Bool)
(declare-fun v40 () Bool)
(declare-fun i8 () Bool)
(declare-fun v38_prime () Bool)
(declare-fun v34_prime () Bool)
(declare-fun v22 () Bool)
(declare-fun v46_prime () Bool)
(declare-fun v50 () Bool)
(declare-fun v52_prime () Bool)
(declare-fun v36_prime () Bool)
(declare-fun v40_prime () Bool)
(declare-fun v36 () Bool)
(declare-fun v28 () Bool)
(assert
 (= v52 false))
(assert
 (= v38 false))
(assert
 (= v28_prime false))
(assert
 (= v12 false))
(assert
 (= v14 true))
(assert
 (= v20_prime true))
(assert
 (= v20 true))
(assert
 (= v48 true))
(assert
 (= i6 true))
(assert
 (= v30 false))
(assert
 (= v42 false))
(assert
 (= v32 false))
(assert
 (= v24_prime false))
(assert
 (= v48_prime true))
(assert
 (= v44_prime true))
(assert
 (= i10 false))
(assert
 (= i4 false))
(assert
 (= v50_prime false))
(assert
 (= i2 false))
(assert
 (= v12_prime false))
(assert
 (= v54_prime true))
(assert
 (= v44 true))
(assert
 (= v16_prime false))
(assert
 (= v26_prime true))
(assert
 (= v54 true))
(assert
 (= v22_prime true))
(assert
 (= v16 true))
(assert
 (= v34 false))
(assert
 (= v32_prime false))
(assert
 (= v24 false))
(assert
 (= v26 true))
(assert
 (= v30_prime false))
(assert
 (= v42_prime false))
(assert
 (= v18 true))
(assert
 (= v18_prime true))
(assert
 (= v46 false))
(assert
 (= v14_prime false))
(assert
 (= v40 true))
(assert
 (= i8 false))
(assert
 (= v38_prime false))
(assert
 (= v34_prime false))
(assert
 (= v22 true))
(assert
 (= v46_prime true))
(assert
 (= v50 false))
(assert
 (= v52_prime false))
(assert
 (= v36_prime true))
(assert
 (= v40_prime true))
(assert
 (= v36 true))
(assert
 (= v28 false))
(assert
 (let (($x253 (not v24)))
 (let (($x72 (not v28)))
 (let (($x820 (not v46)))
 (let (($x295 (not v42)))
 (let (($x780 (and (and (and (and (not v32) (not v30)) v50) (not v38)) v26)))
 (let (($x788 (and (not (and (not (and $x780 v14)) (not v34))) (not (and (not $x780) v34)))))
 (let (($x304 (not v44)))
 (let (($x167 (not v34)))
 (let (($x803 (and (not (and (not (and (and (not v38) (not v32)) v26)) v14)) (not (and (not (and (not v38) (not v32))) (not v14))))))
 (let (($x808 (and (not (and (not $x803) $x167)) (not (and (not (and (not v38) (not v32))) v34)))))
 (let (($x815 (and (not (and (not (and (not $x808) v42)) (not (and (not $x788) $x295)))) $x304)))
 (let (($x821 (and (not (and (not $x815) (not (and (not (and $x788 $x295)) v44)))) $x820)))
 (let (($x298 (not (and v42 v38))))
 (let (($x164 (not (and v38 (not v14)))))
 (let (($x129 (not v38)))
 (let (($x141 (not (and (not (and v32 (not v30))) (not v50)))))
 (let (($x140 (not (and (not (and (not v32) (not v30))) v50))))
 (let (($x132 (not v26)))
 (let (($x159 (not (and (not (and (and (not (and (not v50) v30)) $x140) $x129)) $x132))))
 (let (($x162 (and (not (and $x159 (not (and (not (and (and $x140 $x141) $x129)) v26)))) v14)))
 (let (($x322 (and (not (and (not (and (and $x140 $x141) $x129)) v34)) (not (and (not (and (not $x162) $x164)) $x167)))))
 (let (($x327 (not (and (not (and (not $x322) $x295)) $x298))))
 (let (($x410 (not (and (not (and (not (and (not v50) (not v32))) $x129)) v34))))
 (let (($x151 (not v14)))
 (let (($x215 (not (and (not (and (not v50) (not v32))) $x129))))
 (let (($x403 (and (not (and (not (and v38 $x132)) (not (and $x215 v26)))) v14)))
 (let (($x411 (and (not (and (not (and (not $x403) (not (and $x215 $x151)))) $x167)) $x410)))
 (let (($x414 (not (and (not $x411) v42))))
 (let (($x828 (and (not (and (not (and $x414 (not (and (not $x322) $x295)))) $x304)) (not (and $x327 v44)))))
 (let (($x835 (not (and (and (and (not (and $x828 v46)) (not $x821)) v54) v16))))
 (let (($x84 (not v52)))
 (let (($x843 (not (and v34 v32))))
 (let (($x844 (and (not (and (not (and (and (not v32) v26) v14)) $x167)) $x843)))
 (let (($x855 (and (not (and (not (and (not v32) v26)) v14)) (not (and v32 $x151)))))
 (let (($x864 (and (not (and (not (and (not (and (not $x855) $x167)) $x843)) v42)) (not (and (not $x844) $x295)))))
 (let (($x869 (and (not (and (not $x864) $x304)) (not (and (not (and $x844 $x295)) v44)))))
 (let (($x879 (and (not (and (not (and (and (not v50) (not v32)) v26)) v14)) (not (and (not (and (not v50) (not v32))) $x151)))))
 (let (($x884 (and (not (and (not $x879) $x167)) (not (and (not (and (not v50) (not v32))) v34)))))
 (let (($x891 (and (not (and (not (and (and $x884 v42) $x304)) v46)) (not (and (not $x869) $x820)))))
 (let (($x898 (and (and (not (and (not (and $x891 v54)) $x84)) (not (and $x835 v52))) v20)))
 (let (($x236 (not v22)))
 (let (($x909 (not (and (not (and (and (and v32 (not v30)) v50) $x129)) v34))))
 (let (($x907 (and (not (and (and (and (and v32 (not v30)) v50) $x129) v14)) $x167)))
 (let (($x389 (not (and (not (and (and (not (and v50 v30)) $x141) $x129)) v34))))
 (let (($x197 (not (and (not (and (and (not (and v50 v30)) $x141) $x129)) v26))))
 (let (($x205 (not (and (not (and $x129 (not v30))) $x132))))
 (let (($x223 (not (and (not (and $x205 $x197)) v14))))
 (let (($x393 (not (and (not (and (not (and (not (and $x223 $x164)) $x167)) $x389)) $x295))))
 (let (($x420 (and (not (and (not (and $x414 $x393)) $x304)) (not (and (not (and $x393 $x298)) v44)))))
 (let (($x917 (and (not (and $x420 v46)) (not (and (not (and (and (not $x907) $x909) $x295)) $x820)))))
 (let (($x925 (and (not (and (not (and (not $x420) v46)) (not v54))) (not (and (not $x917) v54)))))
 (let (($x934 (and (not (and (and (and v50 v32) v14) $x167)) (not (and (and v50 v32) v34)))))
 (let (($x944 (not (and (and (and (and (and (not v32) $x132) $x151) $x167) v42) $x304))))
 (let (($x948 (and (not (and $x944 v46)) (not (and (not (and (not $x934) $x295)) $x820)))))
 (let (($x955 (and (not (and (not (and (not $x948) $x84)) (not (and (not $x925) v52)))) $x236)))
 (let (($x972 (and (not (and (not (and (and (not v50) v32) $x129)) v26)) (not (and (not (and (not (and v50 v32)) $x129)) $x132)))))
 (let (($x981 (and (not (and (not (and (not (and (not $x972) v14)) $x164)) $x167)) (not (and (not (and (and (not v50) v32) $x129)) v34)))))
 (let (($x992 (and (not (and (not (and $x129 v32)) v26)) (not (and v38 $x132)))))
 (let (($x997 (and (not (and (not $x992) v14)) (not (and (not (and $x129 v32)) $x151)))))
 (let (($x1002 (and (not (and (not $x997) $x167)) (not (and (not (and $x129 v32)) v34)))))
 (let (($x1008 (and (not (and (not (and (not $x1002) v42)) (not (and (not $x981) $x295)))) $x304)))
 (let (($x1011 (and (not $x1008) (not (and (not (and (not (and (not $x981) $x295)) $x298)) v44)))))
 (let (($x1022 (and (not (and (not (and (not (and $x295 v38)) $x414)) $x304)) (not (and v44 v38)))))
 (let (($x1025 (not (and (not $x1022) v46))))
 (let (($x1031 (and (not (and (not (and $x1025 (not (and (not $x1011) $x820)))) v54)) v16)))
 (let (($x1054 (not (and $x820 (not v20)))))
 (let (($x1047 (and (not (and (not v54) v46)) (not (and (not (and (not (and (not $x828) $x820)) $x1025)) v54)))))
 (let (($x1055 (and (not (and (not (and (not (and $x1047 v16)) v18)) v20)) $x1054)))
 (let (($x1060 (and (not (and (not $x1055) $x236)) (not (and (not (and (and (not $x1031) v18) v20)) v22)))))
 (let (($x1065 (and (not (and (not $x1060) v28)) (not (and (not (and (not $x955) (not (and (not $x898) v22)))) $x72)))))
 (let (($x247 (not v48)))
 (let (($x1073 (not (and (not (and (and (and v46 (not v20)) $x236) v28)) $x247))))
 (let (($x2005 (not (and (and (and $x1073 (not (and (not $x1065) v48))) $x253) v36))))
 (let (($x59 (not v40)))
 (let (($x67 (and (not (and (not v18) v16)) (not (and (and v54 v16) v18)))))
 (let (($x80 (and (not (and (and (not (and (and v54 v16) v20)) v22) v28)) (not (and (and (not (and (not $x67) v20)) v22) $x72)))))
 (let (($x104 (not v36)))
 (let (($x90 (not v20)))
 (let (($x91 (and (not (and (not (and $x84 v16)) (not (and (not $x67) v52)))) $x90)))
 (let (($x101 (not (and (not (and (not (and (and v54 v16) $x90)) v22)) v28))))
 (let (($x106 (not (and (and $x101 (not (and (not (and (not $x91) v22)) $x72))) $x104))))
 (let (($x108 (and $x106 (not (and (not $x80) v36)))))
 (let (($x347 (not i10)))
 (let (($x340 (not i8)))
 (let (($x1383 (not (and v54 $x236))))
 (let (($x1379 (and (not (and (and (and v18 v16) v52) $x90)) (not (and v20 v16)))))
 (let (($x1392 (not (and (not (and (not (and v22 v16)) $x1383)) v28))))
 (let (($x1394 (and $x1392 (not (and (not (and (not (and (not $x1379) v22)) $x1383)) $x72)))))
 (let (($x1402 (not (and (not (and (and v18 v16) v20)) (not (and $x90 v16))))))
 (let (($x1410 (not (and (not (and (not (and (not (and $x1402 v22)) $x1383)) $x72)) $x1392))))
 (let (($x1415 (not (and (not (and $x1410 $x104)) (not (and (not $x1394) v36))))))
 (let (($x1599 (not (and $x104 i6))))
 (let (($x1429 (not (and $x90 i6))))
 (let (($x1432 (and (not (and (not (and (not (and $x820 (not v18))) v20)) $x1429)) v22)))
 (let (($x1438 (and (not (and (not (and (not (and $x820 (not v18))) $x236)) (not $x1432))) $x72)))
 (let (($x1449 (not (and (not (and $x90 (not i6))) v22))))
 (let (($x1450 (and (not (and (and (not (and (and $x820 (not v16)) v20)) $x1054) $x236)) $x1449)))
 (let (($x1594 (not (and (not (and (not (and (not $x1450) v28)) (not $x1438))) v24))))
 (let (($x1464 (and (not (and (not (and (and (and $x820 v38) v54) v16)) v18)) v52)))
 (let (($x1466 (and (not (and (not (and (and (and $x820 v38) v54) v16)) v18)) i6)))
 (let (($x1469 (and (not $x1466) (not (and (not (and v18 (not v16))) (not i6))))))
 (let (($x1477 (and (not (and (and (not (and (not $x1469) $x84)) (not $x1464)) v20)) $x1429)))
 (let (($x451 (not (and v38 v34))))
 (let (($x1487 (not (and (not (and (not (and (not (and $x129 v14)) $x167)) $x451)) v42))))
 (let (($x1492 (and (not (and (not (and $x1487 (not (and $x295 v38)))) $x304)) (not (and v44 v38)))))
 (let (($x446 (not (and v38 v14))))
 (let (($x441 (not (and v38 v26))))
 (let (($x445 (not (and (not (and $x441 (not (and (not (and $x129 v32)) $x132)))) $x151))))
 (let (($x453 (not (and (not (and (not (and $x445 $x446)) $x167)) $x451))))
 (let (($x463 (not (and $x453 v42))))
 (let (($x1500 (not (and (not (and $x441 (not (and (not (and $x129 v32)) $x132)))) $x295))))
 (let (($x1509 (and (not (and (not (and $x1500 $x1487)) $x304)) (not (and (not (and $x1500 $x463)) v44)))))
 (let (($x1517 (not (and (not (and (and (not (and (not $x1509) $x820)) v18) i6)) $x84))))
 (let (($x1519 (and $x1517 (not (and (not (and (not (and (not $x1492) $x820)) v18)) v52)))))
 (let (($x1525 (and (not (and (not (and $x1519 $x236)) (not (and (not $x1477) v22)))) $x72)))
 (let (($x265 (not v16)))
 (let (($x1305 (not (and (not (and (not (and (not (and $x129 v30)) $x132)) $x441)) $x295))))
 (let (($x1532 (not (and (not (and (not (and (not (and $x129 v30)) $x132)) $x441)) $x167))))
 (let (($x1561 (not (and (not (and (not (and (not (and $x1532 $x451)) v42)) $x1305)) v44))))
 (let (($x1551 (not (and (not (and (not (and (not (and $x129 v30)) $x132)) $x441)) v34))))
 (let (($x1545 (not (and (not (and (not (and (not (and $x129 v30)) $x132)) $x441)) v14))))
 (let (($x1549 (and (not (and $x1545 (not (and (and (and $x129 (not v30)) $x132) $x151)))) $x167)))
 (let (($x1557 (and (not (and (not (and (not $x1549) $x1551)) $x295)) (not (and (not (and $x129 v34)) v42)))))
 (let (($x1566 (not (and (and (not (and (not (and (not $x1557) $x304)) $x1561)) v54) $x265))))
 (let (($x1571 (and (not (and (and $x1566 v18) i6)) (not (and (and v18 v16) (not i6))))))
 (let (($x1575 (and (not (and $x1571 v20)) (not (and (not (and (and v46 v18) i6)) $x90)))))
 (let (($x1583 (and (not (and (not (and (not (and $x1575 $x236)) $x1449)) v28)) (not $x1525))))
 (let (($x1590 (and (not (and (and (and $x90 i6) v22) $x247)) (not (and (not $x1583) v48)))))
 (let (($x1600 (and (not (and (not (and (not (and (not $x1590) $x253)) $x1594)) v36)) $x1599)))
 (let (($x1608 (and (not (and (and (not $x1600) $x108) v40)) (not (and (and $x1600 $x108) v40)))))
 (let (($x1610 (and $x1608 (not (and (not (and (and (and $x1415 $x340) $x347) (not $x108))) $x59)))))
 (let (($x1612 (and $x1610 (not (and (and (and (and $x1415 $x340) $x347) (not $x108)) $x59)))))
 (let (($x1618 (and (not (and (not (and (not $x108) v40)) (not (and (not $x1600) $x108)))) v40)))
 (let (($x1620 (and (not $x1618) (not (and (and (and (and $x1415 $x340) $x347) (not $x108)) $x59)))))
 (let (($x2012 (not (and (not (and $x1612 v40)) (not (and (not $x1620) (not $x1612)))))))
 (let (($x1244 (and (not (and (not (and v22 v20)) $x104)) (not (and (and v22 $x90) v36)))))
 (let (($x121 (not (and (not (and v28 v16)) (not (and $x72 v18))))))
 (let (($x118 (not (and v28 v16))))
 (let (($x179 (not (and v52 v18))))
 (let (($x133 (and (not (and (and (and v32 (not v30)) (not v50)) $x129)) $x132)))
 (let (($x149 (not (and (not (and (not (and (and $x140 $x141) $x129)) v26)) (not $x133)))))
 (let (($x171 (and (not (and (not (and (not $x162) $x164)) $x167)) (not (and $x149 v34)))))
 (let (($x178 (not (and (and (and (not (and (not $x171) v54)) v16) v18) $x84))))
 (let (($x186 (not (and (not (and (not (and $x178 $x179)) v20)) (not (and $x90 v18))))))
 (let (($x200 (not (and $x197 (not (and (not (and (and v32 (not v30)) $x129)) $x132))))))
 (let (($x220 (not (and (not (and $x215 v26)) (not (and (not (and $x129 v32)) $x132))))))
 (let (($x229 (and (not (and (not (and (not (and $x220 $x151)) $x223)) $x167)) (not (and $x200 v34)))))
 (let (($x237 (and (not (and (not (and (and (and $x229 v54) v18) $x84)) $x179)) $x236)))
 (let (($x244 (and (not (and (not (and (not $x237) (not (and $x186 v22)))) $x72)) $x118)))
 (let (($x254 (and (not (and (not (and $x121 $x247)) (not (and (not $x244) v48)))) $x253)))
 (let (($x263 (and (not (and $x121 $x104)) (not (and (not (and (not $x254) (not (and $x121 v24)))) v36)))))
 (let (($x1998 (not $x263)))
 (not (and (not $x1998) $x1244 $x820 $x2012 (not $x2005))))))))))))))))))))))))))))))))))))))))))))))))))))))))))))))))))))))))))))))))))))))))))))))))))))))))))))))))))))))))))))))))))))))))))))))))))))))))))))
(check-sat)
